language ESSENCE' 1.0
letting values be [[3, 0, 0, 4, 6, 7, 2, 1, 0], [4, 6, 2, 5, 1, 8, 0, 7, 0], [1, 7, 5, 0, 9, 2, 4, 8, 6], [0, 0, 4, 9, 2, 6, 0, 0, 8], [0, 3, 9, 1, 8, 0, 0, 4, 0], [8, 0, 0, 0, 0, 0, 5, 0, 0], [5, 0, 0, 2, 7, 1, 8, 6, 0], [0, 0, 0, 0, 0, 9, 7, 0, 4], [9, 8, 0, 0, 5, 0, 0, 0, 0]]